Version identifier: 20.1.0.0 | 2020-11-10 | 9bedb6d68
Tried aggregator 2 times.
MIP Presolve eliminated 2585 rows and 1346 columns.
MIP Presolve modified 6358 coefficients.
Aggregator did 250 substitutions.
Reduced MIP has 3854 rows, 3099 columns, and 12706 nonzeros.
Reduced MIP has 703 binaries, 2396 generals, 0 SOSs, and 0 indicators.
Presolve time = 0.04 sec. (15.84 ticks)
Probing fixed 80 vars, tightened 658 bounds.
Probing time = 0.01 sec. (1.62 ticks)
Tried aggregator 3 times.
Detecting symmetries...
MIP Presolve eliminated 1616 rows and 116 columns.
MIP Presolve modified 333 coefficients.
Aggregator did 27 substitutions.
Reduced MIP has 2211 rows, 2956 columns, and 7377 nonzeros.
Reduced MIP has 897 binaries, 2059 generals, 0 SOSs, and 0 indicators.
Presolve time = 0.03 sec. (12.61 ticks)
Probing fixed 0 vars, tightened 6 bounds.
Probing time = 0.00 sec. (0.69 ticks)
Clique table members: 170.
MIP emphasis: balance optimality and feasibility.
MIP search method: dynamic search.
Parallel mode: deterministic, using up to 24 threads.
Root relaxation solution time = 0.06 sec. (12.10 ticks)

        Nodes                                         Cuts/
   Node  Left     Objective  IInf  Best Integer    Best Bound    ItCnt     Gap

      0     0        0.0000   101                      0.0000      743         
*     0+    0                           29.0000        0.0000           100.00%
      0     0        0.0000    76       29.0000     Cuts: 281      965   65.52%
      0     0        0.0000   106       29.0000     Cuts: 118     1099   65.52%
      0     0        0.0000    54       29.0000      Cuts: 45     1153   65.52%
      0     0        0.0000    89       29.0000      Cuts: 44     1200   65.52%
*     0+    0                           23.0000       10.0000            56.52%
      0     2        0.0000    43       23.0000       10.0000     1200   56.52%
Elapsed time = 1.81 sec. (364.55 ticks, tree = 0.02 MB, solutions = 2)
*    85+   24                           22.0000       10.0000            54.55%
*   138+    6                           21.0000       10.0000            52.38%
*   327+   32                           19.0000       11.1111            41.52%

Cover cuts applied:  20
Implied bound cuts applied:  240
Flow cuts applied:  1
Mixed integer rounding cuts applied:  12
Zero-half cuts applied:  71
Lift and project cuts applied:  39
Gomory fractional cuts applied:  30

Root node processing (before b&c):
  Real time             =    1.73 sec. (363.64 ticks)
Parallel b&c, 24 threads:
  Real time             =    1.17 sec. (183.66 ticks)
  Sync time (average)   =    0.92 sec.
  Wait time (average)   =    0.00 sec.
                          ------------
Total (root+branch&cut) =    2.91 sec. (547.31 ticks)

Solution status = Optimal
Solution LB = 19
Solution UB = 19
Runtime = 2.9151 seconds
	Command being timed: "/home/min/git_repos/CS598MEBProject/CNT-ILP/build/cnt -s 2 ./output/k8_n40/simC_c1_k8_n40_u3_s3_del02.input-right.cnp"
	User time (seconds): 40.71
	System time (seconds): 0.43
	Percent of CPU this job got: 1379%
	Elapsed (wall clock) time (h:mm:ss or m:ss): 0:02.98
	Average shared text size (kbytes): 0
	Average unshared data size (kbytes): 0
	Average stack size (kbytes): 0
	Average total size (kbytes): 0
	Maximum resident set size (kbytes): 207648
	Average resident set size (kbytes): 0
	Major (requiring I/O) page faults: 0
	Minor (reclaiming a frame) page faults: 81028
	Voluntary context switches: 14324
	Involuntary context switches: 6065
	Swaps: 0
	File system inputs: 0
	File system outputs: 16
	Socket messages sent: 0
	Socket messages received: 0
	Signals delivered: 0
	Page size (bytes): 4096
	Exit status: 0
